9 8 10 8 9 8 14 4 9 1 7 8 9 8 7 8 14 4 7 1 9 4 7 1 7 8 5 8 4 8 5 6
21 4 19 1 19 8 17 8 16 8 17 6
9 8 10 8 9 8 17 4 9 1 7 8 9 8 7 8 16 4 14 1 12 4 10 1 10 8 9 8 7 8 9 5 25 1 14 1 12 6 10 1 10 8 9 8 7 8 9 6
9 2 13 0 17 4 16 1 14 2 9 0 5 4 2 1 10 8 9 8 10 8 14 4 10 1 9 6
9 2 13 0 17 4 16 1 14 2 9 0 5 4 2 1 10 8 9 8 10 8 14 4 10 1 9 6
19 8 18 8 19 8 23 4 19 1 18 6
7 5 10 2 7 0 5 4 6 1 6 1 6 1 7 4 1 1 4 1 7 1 6 5
6 1 7 5 10 2 7 0 5 4 6 1 6 1 6 1 7 4 1 1 4 1 7 1 6 6
